20 380
0 1 37.7
0 2 50.7
0 3 66.4
0 4 1.9
0 5 55.9
0 6 20.7
0 7 55.3
0 8 16.5
0 9 54.1
0 10 73.0
0 11 58.4
0 12 37.7
0 13 13.3
0 14 28.8
0 15 52.6
0 16 24.5
0 17 57.8
0 18 55.7
0 19 43.0
1 2 16.5
1 3 64.9
1 4 39.6
1 5 40.4
1 6 17.0
1 7 63.2
1 8 25.1
1 9 80.1
1 10 81.1
1 11 91.0
1 12 45.0
1 13 33.0
1 14 22.2
1 15 42.1
1 16 23.9
1 17 70.3
1 18 64.7
1 19 44.9
2 3 79.6
2 4 52.5
2 5 53.3
2 6 31.2
2 7 79.3
2 8 35.3
2 9 96.4
2 10 96.9
2 11 106.5
2 12 61.4
2 13 42.5
2 14 38.7
2 15 56.3
2 16 30.2
2 17 86.6
2 18 80.9
2 19 60.9
3 4 67.3
3 5 28.1
3 6 62.0
3 7 17.2
3 8 71.7
3 9 51.6
3 10 21.8
3 11 72.3
3 12 28.8
3 13 75.7
3 14 45.9
3 15 23.5
3 16 78.0
3 17 24.4
3 18 18.7
3 19 23.7
4 5 57.3
4 6 22.6
4 7 55.7
4 8 18.0
4 9 53.3
4 10 73.3
4 11 57.1
4 12 38.5
4 13 14.2
4 14 30.5
4 15 53.9
4 16 25.9
4 17 58.0
4 18 56.1
4 19 44.0
5 6 43.4
5 7 35.3
5 8 54.7
5 9 66.2
5 10 48.7
5 11 84.4
5 12 28.0
5 13 60.8
5 14 28.0
5 15 6.7
5 16 58.8
5 17 44.4
5 18 37.3
5 19 21.9
6 7 55.9
6 8 11.5
6 9 66.4
6 10 74.4
6 11 75.3
6 12 36.6
6 13 18.6
6 14 16.3
6 15 42.4
6 16 16.0
6 17 61.4
6 18 57.0
6 19 39.0
7 8 63.9
7 9 34.8
7 10 18.5
7 11 55.3
7 12 19.3
7 13 66.3
7 14 41.6
7 15 28.8
7 16 71.2
7 17 9.1
7 18 2.1
7 19 18.4
8 9 69.0
8 10 82.4
8 11 74.8
8 12 44.7
8 13 7.9
8 14 27.1
8 15 53.3
8 16 8.4
8 17 68.3
8 18 64.8
8 19 48.2
9 10 39.7
9 11 21.0
9 12 39.7
9 13 67.4
9 14 58.8
9 15 59.6
9 16 77.4
9 17 27.5
9 18 33.0
9 19 44.7
10 11 60.4
10 12 37.9
10 13 84.5
10 14 59.9
10 15 43.1
10 16 89.7
10 17 15.9
10 18 17.6
10 19 36.3
11 12 56.6
11 13 71.0
11 14 71.7
11 15 77.9
11 16 82.9
11 17 48.4
11 18 53.7
11 19 62.5
12 13 47.7
12 14 22.9
12 15 21.9
12 16 51.9
12 17 25.4
12 18 20.5
12 19 6.8
13 14 32.8
13 15 58.8
13 16 13.0
13 17 69.8
13 18 67.0
13 19 52.0
14 15 26.3
14 16 32.3
14 17 48.2
14 18 43.0
14 19 23.7
15 16 58.2
15 17 37.8
15 18 30.8
15 19 15.4
16 17 76.0
16 18 72.2
16 19 54.8
17 18 7.1
17 19 26.3
18 19 20.1
